; benchmark generated from python API
(set-info :status unknown)
(declare-fun cell_1_3 () Int)
(declare-fun cell_1_4 () Int)
(declare-fun cell_2_1 () Int)
(declare-fun cell_2_5 () Int)
(declare-fun cell_3_7 () Int)
(declare-fun cell_3_8 () Int)
(declare-fun cell_4_2 () Int)
(declare-fun cell_4_6 () Int)
(declare-fun cell_5_9 () Int)
(declare-fun cell_6_2 () Int)
(declare-fun cell_7_5 () Int)
(declare-fun cell_8_8 () Int)
(declare-fun cell_9_3 () Int)
(declare-fun cell_1_1 () Int)
(declare-fun cell_3_1 () Int)
(declare-fun cell_4_1 () Int)
(declare-fun cell_5_1 () Int)
(declare-fun cell_6_1 () Int)
(declare-fun cell_7_1 () Int)
(declare-fun cell_8_1 () Int)
(declare-fun cell_9_1 () Int)
(declare-fun cell_1_2 () Int)
(declare-fun cell_2_2 () Int)
(declare-fun cell_3_2 () Int)
(declare-fun cell_5_2 () Int)
(declare-fun cell_7_2 () Int)
(declare-fun cell_8_2 () Int)
(declare-fun cell_9_2 () Int)
(declare-fun cell_2_3 () Int)
(declare-fun cell_3_3 () Int)
(declare-fun cell_4_3 () Int)
(declare-fun cell_5_3 () Int)
(declare-fun cell_6_3 () Int)
(declare-fun cell_7_3 () Int)
(declare-fun cell_8_3 () Int)
(declare-fun cell_2_4 () Int)
(declare-fun cell_3_4 () Int)
(declare-fun cell_4_4 () Int)
(declare-fun cell_5_4 () Int)
(declare-fun cell_6_4 () Int)
(declare-fun cell_7_4 () Int)
(declare-fun cell_8_4 () Int)
(declare-fun cell_9_4 () Int)
(declare-fun cell_1_5 () Int)
(declare-fun cell_3_5 () Int)
(declare-fun cell_4_5 () Int)
(declare-fun cell_5_5 () Int)
(declare-fun cell_6_5 () Int)
(declare-fun cell_8_5 () Int)
(declare-fun cell_9_5 () Int)
(declare-fun cell_1_6 () Int)
(declare-fun cell_2_6 () Int)
(declare-fun cell_3_6 () Int)
(declare-fun cell_5_6 () Int)
(declare-fun cell_6_6 () Int)
(declare-fun cell_7_6 () Int)
(declare-fun cell_8_6 () Int)
(declare-fun cell_9_6 () Int)
(declare-fun cell_1_7 () Int)
(declare-fun cell_2_7 () Int)
(declare-fun cell_4_7 () Int)
(declare-fun cell_5_7 () Int)
(declare-fun cell_6_7 () Int)
(declare-fun cell_7_7 () Int)
(declare-fun cell_8_7 () Int)
(declare-fun cell_9_7 () Int)
(declare-fun cell_1_8 () Int)
(declare-fun cell_2_8 () Int)
(declare-fun cell_4_8 () Int)
(declare-fun cell_5_8 () Int)
(declare-fun cell_6_8 () Int)
(declare-fun cell_7_8 () Int)
(declare-fun cell_9_8 () Int)
(declare-fun cell_1_9 () Int)
(declare-fun cell_2_9 () Int)
(declare-fun cell_3_9 () Int)
(declare-fun cell_4_9 () Int)
(declare-fun cell_6_9 () Int)
(declare-fun cell_7_9 () Int)
(declare-fun cell_8_9 () Int)
(declare-fun cell_9_9 () Int)
(assert
 (= cell_1_3 2))
(assert
 (= cell_1_4 1))
(assert
 (= cell_2_1 1))
(assert
 (= cell_2_5 2))
(assert
 (= cell_3_7 1))
(assert
 (= cell_3_8 2))
(assert
 (= cell_4_2 2))
(assert
 (= cell_4_6 1))
(assert
 (= cell_5_9 1))
(assert
 (= cell_6_2 1))
(assert
 (= cell_7_5 1))
(assert
 (= cell_8_8 1))
(assert
 (= cell_9_3 1))
(assert
 (let (($x5351 (= cell_1_1 9)))
 (let (($x4992 (= cell_1_1 8)))
 (let (($x3193 (= cell_1_1 7)))
 (let (($x2280 (= cell_1_1 6)))
 (let (($x3970 (= cell_1_1 5)))
 (let (($x3941 (= cell_1_1 4)))
 (let (($x2175 (= cell_1_1 3)))
 (let (($x500 (= cell_1_1 2)))
 (let (($x3861 (= cell_1_1 1)))
 (or $x3861 $x500 $x2175 $x3941 $x3970 $x2280 $x3193 $x4992 $x5351)))))))))))
(assert
 (let (($x3520 (= cell_2_1 1)))
 (or $x3520 (= cell_2_1 2) (= cell_2_1 3) (= cell_2_1 4) (= cell_2_1 5) (= cell_2_1 6) (= cell_2_1 7) (= cell_2_1 8) (= cell_2_1 9))))
(assert
 (let (($x4080 (= cell_3_1 9)))
 (let (($x4007 (= cell_3_1 8)))
 (let (($x8370 (= cell_3_1 7)))
 (let (($x7398 (= cell_3_1 6)))
 (let (($x452 (= cell_3_1 5)))
 (let (($x2943 (= cell_3_1 4)))
 (let (($x5664 (= cell_3_1 3)))
 (let (($x3454 (= cell_3_1 2)))
 (let (($x5702 (= cell_3_1 1)))
 (or $x5702 $x3454 $x5664 $x2943 $x452 $x7398 $x8370 $x4007 $x4080)))))))))))
(assert
 (let (($x4917 (= cell_4_1 9)))
 (let (($x4603 (= cell_4_1 8)))
 (let (($x739 (= cell_4_1 7)))
 (let (($x2916 (= cell_4_1 6)))
 (let (($x3525 (= cell_4_1 5)))
 (let (($x5648 (= cell_4_1 4)))
 (let (($x2072 (= cell_4_1 3)))
 (let (($x3823 (= cell_4_1 2)))
 (let (($x2947 (= cell_4_1 1)))
 (or $x2947 $x3823 $x2072 $x5648 $x3525 $x2916 $x739 $x4603 $x4917)))))))))))
(assert
 (let (($x6826 (= cell_5_1 9)))
 (let (($x7943 (= cell_5_1 8)))
 (let (($x6407 (= cell_5_1 7)))
 (let (($x4616 (= cell_5_1 6)))
 (let (($x414 (= cell_5_1 5)))
 (let (($x761 (= cell_5_1 4)))
 (let (($x2204 (= cell_5_1 3)))
 (let (($x1458 (= cell_5_1 2)))
 (let (($x5076 (= cell_5_1 1)))
 (or $x5076 $x1458 $x2204 $x761 $x414 $x4616 $x6407 $x7943 $x6826)))))))))))
(assert
 (let (($x3884 (= cell_6_1 9)))
 (let (($x6379 (= cell_6_1 8)))
 (let (($x5329 (= cell_6_1 7)))
 (let (($x8037 (= cell_6_1 6)))
 (let (($x145 (= cell_6_1 5)))
 (let (($x8777 (= cell_6_1 4)))
 (let (($x6926 (= cell_6_1 3)))
 (let (($x9338 (= cell_6_1 2)))
 (let (($x8246 (= cell_6_1 1)))
 (or $x8246 $x9338 $x6926 $x8777 $x145 $x8037 $x5329 $x6379 $x3884)))))))))))
(assert
 (let (($x392 (= cell_7_1 9)))
 (let (($x6034 (= cell_7_1 8)))
 (let (($x3705 (= cell_7_1 7)))
 (let (($x4825 (= cell_7_1 6)))
 (let (($x8916 (= cell_7_1 5)))
 (let (($x5495 (= cell_7_1 4)))
 (let (($x8252 (= cell_7_1 3)))
 (let (($x5472 (= cell_7_1 2)))
 (let (($x7941 (= cell_7_1 1)))
 (or $x7941 $x5472 $x8252 $x5495 $x8916 $x4825 $x3705 $x6034 $x392)))))))))))
(assert
 (let (($x8824 (= cell_8_1 9)))
 (let (($x5662 (= cell_8_1 8)))
 (let (($x5176 (= cell_8_1 7)))
 (let (($x5451 (= cell_8_1 6)))
 (let (($x6746 (= cell_8_1 5)))
 (let (($x8362 (= cell_8_1 4)))
 (let (($x2155 (= cell_8_1 3)))
 (let (($x995 (= cell_8_1 2)))
 (let (($x4226 (= cell_8_1 1)))
 (or $x4226 $x995 $x2155 $x8362 $x6746 $x5451 $x5176 $x5662 $x8824)))))))))))
(assert
 (let (($x2990 (= cell_9_1 9)))
 (let (($x2119 (= cell_9_1 8)))
 (let (($x5433 (= cell_9_1 7)))
 (let (($x3177 (= cell_9_1 6)))
 (let (($x1751 (= cell_9_1 5)))
 (let (($x6291 (= cell_9_1 4)))
 (let (($x2452 (= cell_9_1 3)))
 (let (($x3773 (= cell_9_1 2)))
 (let (($x6924 (= cell_9_1 1)))
 (or $x6924 $x3773 $x2452 $x6291 $x1751 $x3177 $x5433 $x2119 $x2990)))))))))))
(assert
 (let (($x1189 (= cell_1_2 9)))
 (let (($x1205 (= cell_1_2 8)))
 (let (($x8422 (= cell_1_2 7)))
 (let (($x7742 (= cell_1_2 6)))
 (let (($x6372 (= cell_1_2 5)))
 (let (($x3948 (= cell_1_2 4)))
 (let (($x7698 (= cell_1_2 3)))
 (let (($x5425 (= cell_1_2 2)))
 (let (($x9177 (= cell_1_2 1)))
 (or $x9177 $x5425 $x7698 $x3948 $x6372 $x7742 $x8422 $x1205 $x1189)))))))))))
(assert
 (let (($x3270 (= cell_2_2 9)))
 (let (($x543 (= cell_2_2 8)))
 (let (($x1254 (= cell_2_2 7)))
 (let (($x2462 (= cell_2_2 6)))
 (let (($x6974 (= cell_2_2 5)))
 (let (($x8202 (= cell_2_2 4)))
 (let (($x9101 (= cell_2_2 3)))
 (let (($x1508 (= cell_2_2 2)))
 (let (($x10126 (= cell_2_2 1)))
 (or $x10126 $x1508 $x9101 $x8202 $x6974 $x2462 $x1254 $x543 $x3270)))))))))))
(assert
 (let (($x4496 (= cell_3_2 9)))
 (let (($x7658 (= cell_3_2 8)))
 (let (($x4127 (= cell_3_2 7)))
 (let (($x7361 (= cell_3_2 6)))
 (let (($x9442 (= cell_3_2 5)))
 (let (($x6427 (= cell_3_2 4)))
 (let (($x2818 (= cell_3_2 3)))
 (let (($x6006 (= cell_3_2 2)))
 (let (($x4690 (= cell_3_2 1)))
 (or $x4690 $x6006 $x2818 $x6427 $x9442 $x7361 $x4127 $x7658 $x4496)))))))))))
(assert
 (let (($x4773 (= cell_4_2 2)))
 (or (= cell_4_2 1) $x4773 (= cell_4_2 3) (= cell_4_2 4) (= cell_4_2 5) (= cell_4_2 6) (= cell_4_2 7) (= cell_4_2 8) (= cell_4_2 9))))
(assert
 (let (($x7327 (= cell_5_2 9)))
 (let (($x6446 (= cell_5_2 8)))
 (let (($x6894 (= cell_5_2 7)))
 (let (($x3956 (= cell_5_2 6)))
 (let (($x6253 (= cell_5_2 5)))
 (let (($x366 (= cell_5_2 4)))
 (let (($x1727 (= cell_5_2 3)))
 (let (($x1004 (= cell_5_2 2)))
 (let (($x3180 (= cell_5_2 1)))
 (or $x3180 $x1004 $x1727 $x366 $x6253 $x3956 $x6894 $x6446 $x7327)))))))))))
(assert
 (let (($x1875 (= cell_6_2 1)))
 (or $x1875 (= cell_6_2 2) (= cell_6_2 3) (= cell_6_2 4) (= cell_6_2 5) (= cell_6_2 6) (= cell_6_2 7) (= cell_6_2 8) (= cell_6_2 9))))
(assert
 (let (($x6793 (= cell_7_2 9)))
 (let (($x6125 (= cell_7_2 8)))
 (let (($x6392 (= cell_7_2 7)))
 (let (($x911 (= cell_7_2 6)))
 (let (($x6732 (= cell_7_2 5)))
 (let (($x7961 (= cell_7_2 4)))
 (let (($x3395 (= cell_7_2 3)))
 (let (($x8950 (= cell_7_2 2)))
 (let (($x9754 (= cell_7_2 1)))
 (or $x9754 $x8950 $x3395 $x7961 $x6732 $x911 $x6392 $x6125 $x6793)))))))))))
(assert
 (let (($x4648 (= cell_8_2 9)))
 (let (($x9840 (= cell_8_2 8)))
 (let (($x6721 (= cell_8_2 7)))
 (let (($x726 (= cell_8_2 6)))
 (let (($x872 (= cell_8_2 5)))
 (let (($x2715 (= cell_8_2 4)))
 (let (($x5080 (= cell_8_2 3)))
 (let (($x8813 (= cell_8_2 2)))
 (let (($x4861 (= cell_8_2 1)))
 (or $x4861 $x8813 $x5080 $x2715 $x872 $x726 $x6721 $x9840 $x4648)))))))))))
(assert
 (let (($x9057 (= cell_9_2 9)))
 (let (($x188 (= cell_9_2 8)))
 (let (($x1256 (= cell_9_2 7)))
 (let (($x6307 (= cell_9_2 6)))
 (let (($x8791 (= cell_9_2 5)))
 (let (($x3993 (= cell_9_2 4)))
 (let (($x5863 (= cell_9_2 3)))
 (let (($x9085 (= cell_9_2 2)))
 (let (($x9842 (= cell_9_2 1)))
 (or $x9842 $x9085 $x5863 $x3993 $x8791 $x6307 $x1256 $x188 $x9057)))))))))))
(assert
 (let (($x1566 (= cell_1_3 2)))
 (or (= cell_1_3 1) $x1566 (= cell_1_3 3) (= cell_1_3 4) (= cell_1_3 5) (= cell_1_3 6) (= cell_1_3 7) (= cell_1_3 8) (= cell_1_3 9))))
(assert
 (let (($x9480 (= cell_2_3 9)))
 (let (($x3594 (= cell_2_3 8)))
 (let (($x6345 (= cell_2_3 7)))
 (let (($x5199 (= cell_2_3 6)))
 (let (($x3810 (= cell_2_3 5)))
 (let (($x630 (= cell_2_3 4)))
 (let (($x2816 (= cell_2_3 3)))
 (let (($x7549 (= cell_2_3 2)))
 (let (($x7586 (= cell_2_3 1)))
 (or $x7586 $x7549 $x2816 $x630 $x3810 $x5199 $x6345 $x3594 $x9480)))))))))))
(assert
 (let (($x1647 (= cell_3_3 9)))
 (let (($x10021 (= cell_3_3 8)))
 (let (($x2628 (= cell_3_3 7)))
 (let (($x2518 (= cell_3_3 6)))
 (let (($x10120 (= cell_3_3 5)))
 (let (($x6962 (= cell_3_3 4)))
 (let (($x9105 (= cell_3_3 3)))
 (let (($x10209 (= cell_3_3 2)))
 (let (($x230 (= cell_3_3 1)))
 (or $x230 $x10209 $x9105 $x6962 $x10120 $x2518 $x2628 $x10021 $x1647)))))))))))
(assert
 (let (($x10188 (= cell_4_3 9)))
 (let (($x5610 (= cell_4_3 8)))
 (let (($x832 (= cell_4_3 7)))
 (let (($x3393 (= cell_4_3 6)))
 (let (($x6546 (= cell_4_3 5)))
 (let (($x3004 (= cell_4_3 4)))
 (let (($x6886 (= cell_4_3 3)))
 (let (($x3414 (= cell_4_3 2)))
 (let (($x3714 (= cell_4_3 1)))
 (or $x3714 $x3414 $x6886 $x3004 $x6546 $x3393 $x832 $x5610 $x10188)))))))))))
(assert
 (let (($x7380 (= cell_5_3 9)))
 (let (($x5324 (= cell_5_3 8)))
 (let (($x7468 (= cell_5_3 7)))
 (let (($x5363 (= cell_5_3 6)))
 (let (($x1645 (= cell_5_3 5)))
 (let (($x3309 (= cell_5_3 4)))
 (let (($x5379 (= cell_5_3 3)))
 (let (($x6258 (= cell_5_3 2)))
 (let (($x4067 (= cell_5_3 1)))
 (or $x4067 $x6258 $x5379 $x3309 $x1645 $x5363 $x7468 $x5324 $x7380)))))))))))
(assert
 (let (($x3910 (= cell_6_3 9)))
 (let (($x8919 (= cell_6_3 8)))
 (let (($x1478 (= cell_6_3 7)))
 (let (($x6748 (= cell_6_3 6)))
 (let (($x6830 (= cell_6_3 5)))
 (let (($x98 (= cell_6_3 4)))
 (let (($x4787 (= cell_6_3 3)))
 (let (($x7385 (= cell_6_3 2)))
 (let (($x9661 (= cell_6_3 1)))
 (or $x9661 $x7385 $x4787 $x98 $x6830 $x6748 $x1478 $x8919 $x3910)))))))))))
(assert
 (let (($x5836 (= cell_7_3 9)))
 (let (($x3133 (= cell_7_3 8)))
 (let (($x10135 (= cell_7_3 7)))
 (let (($x2738 (= cell_7_3 6)))
 (let (($x2554 (= cell_7_3 5)))
 (let (($x9624 (= cell_7_3 4)))
 (let (($x9174 (= cell_7_3 3)))
 (let (($x6126 (= cell_7_3 2)))
 (let (($x5569 (= cell_7_3 1)))
 (or $x5569 $x6126 $x9174 $x9624 $x2554 $x2738 $x10135 $x3133 $x5836)))))))))))
(assert
 (let (($x9052 (= cell_8_3 9)))
 (let (($x2244 (= cell_8_3 8)))
 (let (($x5797 (= cell_8_3 7)))
 (let (($x8857 (= cell_8_3 6)))
 (let (($x3673 (= cell_8_3 5)))
 (let (($x1326 (= cell_8_3 4)))
 (let (($x5879 (= cell_8_3 3)))
 (let (($x5313 (= cell_8_3 2)))
 (let (($x8333 (= cell_8_3 1)))
 (or $x8333 $x5313 $x5879 $x1326 $x3673 $x8857 $x5797 $x2244 $x9052)))))))))))
(assert
 (let (($x2862 (= cell_9_3 1)))
 (or $x2862 (= cell_9_3 2) (= cell_9_3 3) (= cell_9_3 4) (= cell_9_3 5) (= cell_9_3 6) (= cell_9_3 7) (= cell_9_3 8) (= cell_9_3 9))))
(assert
 (let (($x7748 (= cell_1_4 1)))
 (or $x7748 (= cell_1_4 2) (= cell_1_4 3) (= cell_1_4 4) (= cell_1_4 5) (= cell_1_4 6) (= cell_1_4 7) (= cell_1_4 8) (= cell_1_4 9))))
(assert
 (let (($x2613 (= cell_2_4 9)))
 (let (($x9155 (= cell_2_4 8)))
 (let (($x8450 (= cell_2_4 7)))
 (let (($x4164 (= cell_2_4 6)))
 (let (($x9776 (= cell_2_4 5)))
 (let (($x9867 (= cell_2_4 4)))
 (let (($x4039 (= cell_2_4 3)))
 (let (($x7722 (= cell_2_4 2)))
 (let (($x10067 (= cell_2_4 1)))
 (or $x10067 $x7722 $x4039 $x9867 $x9776 $x4164 $x8450 $x9155 $x2613)))))))))))
(assert
 (let (($x2964 (= cell_3_4 9)))
 (let (($x6278 (= cell_3_4 8)))
 (let (($x4037 (= cell_3_4 7)))
 (let (($x1737 (= cell_3_4 6)))
 (let (($x3207 (= cell_3_4 5)))
 (let (($x4579 (= cell_3_4 4)))
 (let (($x9424 (= cell_3_4 3)))
 (let (($x8283 (= cell_3_4 2)))
 (let (($x7827 (= cell_3_4 1)))
 (or $x7827 $x8283 $x9424 $x4579 $x3207 $x1737 $x4037 $x6278 $x2964)))))))))))
(assert
 (let (($x8768 (= cell_4_4 9)))
 (let (($x5931 (= cell_4_4 8)))
 (let (($x1021 (= cell_4_4 7)))
 (let (($x9704 (= cell_4_4 6)))
 (let (($x1340 (= cell_4_4 5)))
 (let (($x1172 (= cell_4_4 4)))
 (let (($x2239 (= cell_4_4 3)))
 (let (($x6469 (= cell_4_4 2)))
 (let (($x4495 (= cell_4_4 1)))
 (or $x4495 $x6469 $x2239 $x1172 $x1340 $x9704 $x1021 $x5931 $x8768)))))))))))
(assert
 (let (($x5004 (= cell_5_4 9)))
 (let (($x2412 (= cell_5_4 8)))
 (let (($x7358 (= cell_5_4 7)))
 (let (($x6788 (= cell_5_4 6)))
 (let (($x828 (= cell_5_4 5)))
 (let (($x2364 (= cell_5_4 4)))
 (let (($x1703 (= cell_5_4 3)))
 (let (($x1819 (= cell_5_4 2)))
 (let (($x9279 (= cell_5_4 1)))
 (or $x9279 $x1819 $x1703 $x2364 $x828 $x6788 $x7358 $x2412 $x5004)))))))))))
(assert
 (let (($x397 (= cell_6_4 1)))
 (or $x397 (= cell_6_4 2) (= cell_6_4 3) (= cell_6_4 4) (= cell_6_4 5) (= cell_6_4 6) (= cell_6_4 7) (= cell_6_4 8) (= cell_6_4 9))))
(assert
 (let (($x10045 (= cell_7_4 9)))
 (let (($x3373 (= cell_7_4 8)))
 (let (($x1113 (= cell_7_4 7)))
 (let (($x8220 (= cell_7_4 6)))
 (let (($x2418 (= cell_7_4 5)))
 (let (($x4024 (= cell_7_4 4)))
 (let (($x7486 (= cell_7_4 3)))
 (let (($x2661 (= cell_7_4 2)))
 (let (($x1632 (= cell_7_4 1)))
 (or $x1632 $x2661 $x7486 $x4024 $x2418 $x8220 $x1113 $x3373 $x10045)))))))))))
(assert
 (let (($x2075 (= cell_8_4 9)))
 (let (($x4129 (= cell_8_4 8)))
 (let (($x1373 (= cell_8_4 7)))
 (let (($x7651 (= cell_8_4 6)))
 (let (($x6739 (= cell_8_4 5)))
 (let (($x7463 (= cell_8_4 4)))
 (let (($x1750 (= cell_8_4 3)))
 (let (($x9865 (= cell_8_4 2)))
 (let (($x435 (= cell_8_4 1)))
 (or $x435 $x9865 $x1750 $x7463 $x6739 $x7651 $x1373 $x4129 $x2075)))))))))))
(assert
 (let (($x8875 (= cell_9_4 1)))
 (or $x8875 (= cell_9_4 2) (= cell_9_4 3) (= cell_9_4 4) (= cell_9_4 5) (= cell_9_4 6) (= cell_9_4 7) (= cell_9_4 8) (= cell_9_4 9))))
(assert
 (let (($x6498 (= cell_1_5 9)))
 (let (($x7502 (= cell_1_5 8)))
 (let (($x888 (= cell_1_5 7)))
 (let (($x7908 (= cell_1_5 6)))
 (let (($x6824 (= cell_1_5 5)))
 (let (($x9165 (= cell_1_5 4)))
 (let (($x7503 (= cell_1_5 3)))
 (let (($x5733 (= cell_1_5 2)))
 (let (($x9869 (= cell_1_5 1)))
 (or $x9869 $x5733 $x7503 $x9165 $x6824 $x7908 $x888 $x7502 $x6498)))))))))))
(assert
 (let (($x5047 (= cell_2_5 2)))
 (or (= cell_2_5 1) $x5047 (= cell_2_5 3) (= cell_2_5 4) (= cell_2_5 5) (= cell_2_5 6) (= cell_2_5 7) (= cell_2_5 8) (= cell_2_5 9))))
(assert
 (let (($x7790 (= cell_3_5 9)))
 (let (($x1880 (= cell_3_5 8)))
 (let (($x9588 (= cell_3_5 7)))
 (let (($x169 (= cell_3_5 6)))
 (let (($x3640 (= cell_3_5 5)))
 (let (($x8112 (= cell_3_5 4)))
 (let (($x2290 (= cell_3_5 3)))
 (let (($x9468 (= cell_3_5 2)))
 (let (($x5502 (= cell_3_5 1)))
 (or $x5502 $x9468 $x2290 $x8112 $x3640 $x169 $x9588 $x1880 $x7790)))))))))))
(assert
 (let (($x6820 (= cell_4_5 9)))
 (let (($x7655 (= cell_4_5 8)))
 (let (($x4510 (= cell_4_5 7)))
 (let (($x5607 (= cell_4_5 6)))
 (let (($x9028 (= cell_4_5 5)))
 (let (($x2529 (= cell_4_5 4)))
 (let (($x4901 (= cell_4_5 3)))
 (let (($x5140 (= cell_4_5 2)))
 (let (($x5396 (= cell_4_5 1)))
 (or $x5396 $x5140 $x4901 $x2529 $x9028 $x5607 $x4510 $x7655 $x6820)))))))))))
(assert
 (let (($x5684 (= cell_5_5 9)))
 (let (($x6958 (= cell_5_5 8)))
 (let (($x599 (= cell_5_5 7)))
 (let (($x1169 (= cell_5_5 6)))
 (let (($x4328 (= cell_5_5 5)))
 (let (($x355 (= cell_5_5 4)))
 (let (($x1301 (= cell_5_5 3)))
 (let (($x6627 (= cell_5_5 2)))
 (let (($x4202 (= cell_5_5 1)))
 (or $x4202 $x6627 $x1301 $x355 $x4328 $x1169 $x599 $x6958 $x5684)))))))))))
(assert
 (let (($x6288 (= cell_6_5 9)))
 (let (($x7213 (= cell_6_5 8)))
 (let (($x9298 (= cell_6_5 7)))
 (let (($x4726 (= cell_6_5 6)))
 (let (($x4014 (= cell_6_5 5)))
 (let (($x2986 (= cell_6_5 4)))
 (let (($x3315 (= cell_6_5 3)))
 (let (($x8437 (= cell_6_5 2)))
 (let (($x5600 (= cell_6_5 1)))
 (or $x5600 $x8437 $x3315 $x2986 $x4014 $x4726 $x9298 $x7213 $x6288)))))))))))
(assert
 (let (($x1260 (= cell_7_5 1)))
 (or $x1260 (= cell_7_5 2) (= cell_7_5 3) (= cell_7_5 4) (= cell_7_5 5) (= cell_7_5 6) (= cell_7_5 7) (= cell_7_5 8) (= cell_7_5 9))))
(assert
 (let (($x4088 (= cell_8_5 9)))
 (let (($x3385 (= cell_8_5 8)))
 (let (($x6558 (= cell_8_5 7)))
 (let (($x7590 (= cell_8_5 6)))
 (let (($x9091 (= cell_8_5 5)))
 (let (($x3936 (= cell_8_5 4)))
 (let (($x3412 (= cell_8_5 3)))
 (let (($x790 (= cell_8_5 2)))
 (let (($x7258 (= cell_8_5 1)))
 (or $x7258 $x790 $x3412 $x3936 $x9091 $x7590 $x6558 $x3385 $x4088)))))))))))
(assert
 (let (($x6616 (= cell_9_5 2)))
 (let (($x7201 (= cell_9_5 1)))
 (or $x7201 $x6616 (= cell_9_5 3) (= cell_9_5 4) (= cell_9_5 5) (= cell_9_5 6) (= cell_9_5 7) (= cell_9_5 8) (= cell_9_5 9)))))
(assert
 (let (($x3087 (= cell_1_6 9)))
 (let (($x327 (= cell_1_6 8)))
 (let (($x3077 (= cell_1_6 7)))
 (let (($x2849 (= cell_1_6 6)))
 (let (($x7479 (= cell_1_6 5)))
 (let (($x5800 (= cell_1_6 4)))
 (let (($x5301 (= cell_1_6 3)))
 (let (($x9353 (= cell_1_6 2)))
 (let (($x7466 (= cell_1_6 1)))
 (or $x7466 $x9353 $x5301 $x5800 $x7479 $x2849 $x3077 $x327 $x3087)))))))))))
(assert
 (let (($x7138 (= cell_2_6 9)))
 (let (($x5515 (= cell_2_6 8)))
 (let (($x5854 (= cell_2_6 7)))
 (let (($x8946 (= cell_2_6 6)))
 (let (($x2895 (= cell_2_6 5)))
 (let (($x8383 (= cell_2_6 4)))
 (let (($x3669 (= cell_2_6 3)))
 (let (($x8076 (= cell_2_6 2)))
 (let (($x3786 (= cell_2_6 1)))
 (or $x3786 $x8076 $x3669 $x8383 $x2895 $x8946 $x5854 $x5515 $x7138)))))))))))
(assert
 (let (($x310 (= cell_3_6 9)))
 (let (($x7544 (= cell_3_6 8)))
 (let (($x5582 (= cell_3_6 7)))
 (let (($x661 (= cell_3_6 6)))
 (let (($x6466 (= cell_3_6 5)))
 (let (($x10156 (= cell_3_6 4)))
 (let (($x8367 (= cell_3_6 3)))
 (let (($x6575 (= cell_3_6 2)))
 (let (($x8905 (= cell_3_6 1)))
 (or $x8905 $x6575 $x8367 $x10156 $x6466 $x661 $x5582 $x7544 $x310)))))))))))
(assert
 (let (($x2673 (= cell_4_6 1)))
 (or $x2673 (= cell_4_6 2) (= cell_4_6 3) (= cell_4_6 4) (= cell_4_6 5) (= cell_4_6 6) (= cell_4_6 7) (= cell_4_6 8) (= cell_4_6 9))))
(assert
 (let (($x8697 (= cell_5_6 9)))
 (let (($x3499 (= cell_5_6 8)))
 (let (($x2782 (= cell_5_6 7)))
 (let (($x8156 (= cell_5_6 6)))
 (let (($x857 (= cell_5_6 5)))
 (let (($x6451 (= cell_5_6 4)))
 (let (($x8259 (= cell_5_6 3)))
 (let (($x9462 (= cell_5_6 2)))
 (let (($x3569 (= cell_5_6 1)))
 (or $x3569 $x9462 $x8259 $x6451 $x857 $x8156 $x2782 $x3499 $x8697)))))))))))
(assert
 (let (($x1076 (= cell_6_6 1)))
 (or $x1076 (= cell_6_6 2) (= cell_6_6 3) (= cell_6_6 4) (= cell_6_6 5) (= cell_6_6 6) (= cell_6_6 7) (= cell_6_6 8) (= cell_6_6 9))))
(assert
 (let (($x3168 (= cell_7_6 1)))
 (or $x3168 (= cell_7_6 2) (= cell_7_6 3) (= cell_7_6 4) (= cell_7_6 5) (= cell_7_6 6) (= cell_7_6 7) (= cell_7_6 8) (= cell_7_6 9))))
(assert
 (let (($x6055 (= cell_8_6 9)))
 (let (($x6651 (= cell_8_6 8)))
 (let (($x6800 (= cell_8_6 7)))
 (let (($x6331 (= cell_8_6 6)))
 (let (($x6128 (= cell_8_6 5)))
 (let (($x58 (= cell_8_6 4)))
 (let (($x2495 (= cell_8_6 3)))
 (let (($x4117 (= cell_8_6 2)))
 (let (($x4301 (= cell_8_6 1)))
 (or $x4301 $x4117 $x2495 $x58 $x6128 $x6331 $x6800 $x6651 $x6055)))))))))))
(assert
 (let (($x2136 (= cell_9_6 1)))
 (or $x2136 (= cell_9_6 2) (= cell_9_6 3) (= cell_9_6 4) (= cell_9_6 5) (= cell_9_6 6) (= cell_9_6 7) (= cell_9_6 8) (= cell_9_6 9))))
(assert
 (let (($x7048 (= cell_1_7 9)))
 (let (($x1655 (= cell_1_7 8)))
 (let (($x1725 (= cell_1_7 7)))
 (let (($x682 (= cell_1_7 6)))
 (let (($x494 (= cell_1_7 5)))
 (let (($x7400 (= cell_1_7 4)))
 (let (($x5773 (= cell_1_7 3)))
 (let (($x6577 (= cell_1_7 2)))
 (let (($x3303 (= cell_1_7 1)))
 (or $x3303 $x6577 $x5773 $x7400 $x494 $x682 $x1725 $x1655 $x7048)))))))))))
(assert
 (let (($x2931 (= cell_2_7 9)))
 (let (($x2641 (= cell_2_7 8)))
 (let (($x1295 (= cell_2_7 7)))
 (let (($x650 (= cell_2_7 6)))
 (let (($x4587 (= cell_2_7 5)))
 (let (($x7055 (= cell_2_7 4)))
 (let (($x10093 (= cell_2_7 3)))
 (let (($x8543 (= cell_2_7 2)))
 (let (($x4639 (= cell_2_7 1)))
 (or $x4639 $x8543 $x10093 $x7055 $x4587 $x650 $x1295 $x2641 $x2931)))))))))))
(assert
 (let (($x4218 (= cell_3_7 1)))
 (or $x4218 (= cell_3_7 2) (= cell_3_7 3) (= cell_3_7 4) (= cell_3_7 5) (= cell_3_7 6) (= cell_3_7 7) (= cell_3_7 8) (= cell_3_7 9))))
(assert
 (let (($x786 (= cell_4_7 9)))
 (let (($x971 (= cell_4_7 8)))
 (let (($x4699 (= cell_4_7 7)))
 (let (($x9802 (= cell_4_7 6)))
 (let (($x7396 (= cell_4_7 5)))
 (let (($x1638 (= cell_4_7 4)))
 (let (($x6483 (= cell_4_7 3)))
 (let (($x3602 (= cell_4_7 2)))
 (let (($x10030 (= cell_4_7 1)))
 (or $x10030 $x3602 $x6483 $x1638 $x7396 $x9802 $x4699 $x971 $x786)))))))))))
(assert
 (let (($x5404 (= cell_5_7 9)))
 (let (($x6404 (= cell_5_7 8)))
 (let (($x6004 (= cell_5_7 7)))
 (let (($x88 (= cell_5_7 6)))
 (let (($x3252 (= cell_5_7 5)))
 (let (($x3570 (= cell_5_7 4)))
 (let (($x2918 (= cell_5_7 3)))
 (let (($x1982 (= cell_5_7 2)))
 (let (($x2959 (= cell_5_7 1)))
 (or $x2959 $x1982 $x2918 $x3570 $x3252 $x88 $x6004 $x6404 $x5404)))))))))))
(assert
 (let (($x2915 (= cell_6_7 1)))
 (or $x2915 (= cell_6_7 2) (= cell_6_7 3) (= cell_6_7 4) (= cell_6_7 5) (= cell_6_7 6) (= cell_6_7 7) (= cell_6_7 8) (= cell_6_7 9))))
(assert
 (let (($x784 (= cell_7_7 9)))
 (let (($x8637 (= cell_7_7 8)))
 (let (($x7218 (= cell_7_7 7)))
 (let (($x7541 (= cell_7_7 6)))
 (let (($x1848 (= cell_7_7 5)))
 (let (($x3301 (= cell_7_7 4)))
 (let (($x9690 (= cell_7_7 3)))
 (let (($x8634 (= cell_7_7 2)))
 (let (($x4836 (= cell_7_7 1)))
 (or $x4836 $x8634 $x9690 $x3301 $x1848 $x7541 $x7218 $x8637 $x784)))))))))))
(assert
 (let (($x5371 (= cell_8_7 9)))
 (let (($x5418 (= cell_8_7 8)))
 (let (($x6604 (= cell_8_7 7)))
 (let (($x3633 (= cell_8_7 6)))
 (let (($x2607 (= cell_8_7 5)))
 (let (($x8823 (= cell_8_7 4)))
 (let (($x8497 (= cell_8_7 3)))
 (let (($x1072 (= cell_8_7 2)))
 (let (($x8354 (= cell_8_7 1)))
 (or $x8354 $x1072 $x8497 $x8823 $x2607 $x3633 $x6604 $x5418 $x5371)))))))))))
(assert
 (let (($x8107 (= cell_9_7 1)))
 (or $x8107 (= cell_9_7 2) (= cell_9_7 3) (= cell_9_7 4) (= cell_9_7 5) (= cell_9_7 6) (= cell_9_7 7) (= cell_9_7 8) (= cell_9_7 9))))
(assert
 (let (($x6104 (= cell_1_8 9)))
 (let (($x280 (= cell_1_8 8)))
 (let (($x7799 (= cell_1_8 7)))
 (let (($x1733 (= cell_1_8 6)))
 (let (($x7058 (= cell_1_8 5)))
 (let (($x9526 (= cell_1_8 4)))
 (let (($x1356 (= cell_1_8 3)))
 (let (($x6435 (= cell_1_8 2)))
 (let (($x4669 (= cell_1_8 1)))
 (or $x4669 $x6435 $x1356 $x9526 $x7058 $x1733 $x7799 $x280 $x6104)))))))))))
(assert
 (let (($x5976 (= cell_2_8 9)))
 (let (($x5817 (= cell_2_8 8)))
 (let (($x7576 (= cell_2_8 7)))
 (let (($x3261 (= cell_2_8 6)))
 (let (($x2313 (= cell_2_8 5)))
 (let (($x5101 (= cell_2_8 4)))
 (let (($x3830 (= cell_2_8 3)))
 (let (($x8849 (= cell_2_8 2)))
 (let (($x5334 (= cell_2_8 1)))
 (or $x5334 $x8849 $x3830 $x5101 $x2313 $x3261 $x7576 $x5817 $x5976)))))))))))
(assert
 (let (($x984 (= cell_3_8 2)))
 (or (= cell_3_8 1) $x984 (= cell_3_8 3) (= cell_3_8 4) (= cell_3_8 5) (= cell_3_8 6) (= cell_3_8 7) (= cell_3_8 8) (= cell_3_8 9))))
(assert
 (let (($x6366 (= cell_4_8 9)))
 (let (($x2077 (= cell_4_8 8)))
 (let (($x8136 (= cell_4_8 7)))
 (let (($x7916 (= cell_4_8 6)))
 (let (($x202 (= cell_4_8 5)))
 (let (($x4745 (= cell_4_8 4)))
 (let (($x992 (= cell_4_8 3)))
 (let (($x3468 (= cell_4_8 2)))
 (let (($x432 (= cell_4_8 1)))
 (or $x432 $x3468 $x992 $x4745 $x202 $x7916 $x8136 $x2077 $x6366)))))))))))
(assert
 (let (($x3436 (= cell_5_8 9)))
 (let (($x7002 (= cell_5_8 8)))
 (let (($x1028 (= cell_5_8 7)))
 (let (($x1131 (= cell_5_8 6)))
 (let (($x2304 (= cell_5_8 5)))
 (let (($x6082 (= cell_5_8 4)))
 (let (($x5421 (= cell_5_8 3)))
 (let (($x2578 (= cell_5_8 2)))
 (let (($x3684 (= cell_5_8 1)))
 (or $x3684 $x2578 $x5421 $x6082 $x2304 $x1131 $x1028 $x7002 $x3436)))))))))))
(assert
 (let (($x6602 (= cell_6_8 9)))
 (let (($x1753 (= cell_6_8 8)))
 (let (($x9287 (= cell_6_8 7)))
 (let (($x8169 (= cell_6_8 6)))
 (let (($x1993 (= cell_6_8 5)))
 (let (($x1476 (= cell_6_8 4)))
 (let (($x6200 (= cell_6_8 3)))
 (let (($x2248 (= cell_6_8 2)))
 (let (($x5096 (= cell_6_8 1)))
 (or $x5096 $x2248 $x6200 $x1476 $x1993 $x8169 $x9287 $x1753 $x6602)))))))))))
(assert
 (let (($x1992 (= cell_7_8 9)))
 (let (($x4386 (= cell_7_8 8)))
 (let (($x3638 (= cell_7_8 7)))
 (let (($x7865 (= cell_7_8 6)))
 (let (($x508 (= cell_7_8 5)))
 (let (($x4256 (= cell_7_8 4)))
 (let (($x6380 (= cell_7_8 3)))
 (let (($x9632 (= cell_7_8 2)))
 (let (($x576 (= cell_7_8 1)))
 (or $x576 $x9632 $x6380 $x4256 $x508 $x7865 $x3638 $x4386 $x1992)))))))))))
(assert
 (let (($x2841 (= cell_8_8 1)))
 (or $x2841 (= cell_8_8 2) (= cell_8_8 3) (= cell_8_8 4) (= cell_8_8 5) (= cell_8_8 6) (= cell_8_8 7) (= cell_8_8 8) (= cell_8_8 9))))
(assert
 (let (($x10031 (= cell_9_8 2)))
 (let (($x6773 (= cell_9_8 1)))
 (or $x6773 $x10031 (= cell_9_8 3) (= cell_9_8 4) (= cell_9_8 5) (= cell_9_8 6) (= cell_9_8 7) (= cell_9_8 8) (= cell_9_8 9)))))
(assert
 (let (($x5296 (= cell_1_9 9)))
 (let (($x6480 (= cell_1_9 8)))
 (let (($x2454 (= cell_1_9 7)))
 (let (($x1054 (= cell_1_9 6)))
 (let (($x7075 (= cell_1_9 5)))
 (let (($x2886 (= cell_1_9 4)))
 (let (($x10350 (= cell_1_9 3)))
 (let (($x9585 (= cell_1_9 2)))
 (let (($x7350 (= cell_1_9 1)))
 (or $x7350 $x9585 $x10350 $x2886 $x7075 $x1054 $x2454 $x6480 $x5296)))))))))))
(assert
 (let (($x5566 (= cell_2_9 9)))
 (let (($x5306 (= cell_2_9 8)))
 (let (($x6608 (= cell_2_9 7)))
 (let (($x10070 (= cell_2_9 6)))
 (let (($x9743 (= cell_2_9 5)))
 (let (($x6921 (= cell_2_9 4)))
 (let (($x6060 (= cell_2_9 3)))
 (let (($x2541 (= cell_2_9 2)))
 (let (($x2109 (= cell_2_9 1)))
 (or $x2109 $x2541 $x6060 $x6921 $x9743 $x10070 $x6608 $x5306 $x5566)))))))))))
(assert
 (let (($x9718 (= cell_3_9 9)))
 (let (($x8015 (= cell_3_9 8)))
 (let (($x7073 (= cell_3_9 7)))
 (let (($x3109 (= cell_3_9 6)))
 (let (($x7846 (= cell_3_9 5)))
 (let (($x3697 (= cell_3_9 4)))
 (let (($x1153 (= cell_3_9 3)))
 (let (($x1005 (= cell_3_9 2)))
 (let (($x8766 (= cell_3_9 1)))
 (or $x8766 $x1005 $x1153 $x3697 $x7846 $x3109 $x7073 $x8015 $x9718)))))))))))
(assert
 (let (($x2796 (= cell_4_9 9)))
 (let (($x2804 (= cell_4_9 8)))
 (let (($x6321 (= cell_4_9 7)))
 (let (($x7510 (= cell_4_9 6)))
 (let (($x5347 (= cell_4_9 5)))
 (let (($x2358 (= cell_4_9 4)))
 (let (($x8077 (= cell_4_9 3)))
 (let (($x6977 (= cell_4_9 2)))
 (let (($x2002 (= cell_4_9 1)))
 (or $x2002 $x6977 $x8077 $x2358 $x5347 $x7510 $x6321 $x2804 $x2796)))))))))))
(assert
 (let (($x931 (= cell_5_9 1)))
 (or $x931 (= cell_5_9 2) (= cell_5_9 3) (= cell_5_9 4) (= cell_5_9 5) (= cell_5_9 6) (= cell_5_9 7) (= cell_5_9 8) (= cell_5_9 9))))
(assert
 (let (($x7986 (= cell_6_9 1)))
 (or $x7986 (= cell_6_9 2) (= cell_6_9 3) (= cell_6_9 4) (= cell_6_9 5) (= cell_6_9 6) (= cell_6_9 7) (= cell_6_9 8) (= cell_6_9 9))))
(assert
 (let (($x9302 (= cell_7_9 9)))
 (let (($x3244 (= cell_7_9 8)))
 (let (($x6190 (= cell_7_9 7)))
 (let (($x840 (= cell_7_9 6)))
 (let (($x7159 (= cell_7_9 5)))
 (let (($x2064 (= cell_7_9 4)))
 (let (($x9656 (= cell_7_9 3)))
 (let (($x5579 (= cell_7_9 2)))
 (let (($x664 (= cell_7_9 1)))
 (or $x664 $x5579 $x9656 $x2064 $x7159 $x840 $x6190 $x3244 $x9302)))))))))))
(assert
 (let (($x9073 (= cell_8_9 1)))
 (or $x9073 (= cell_8_9 2) (= cell_8_9 3) (= cell_8_9 4) (= cell_8_9 5) (= cell_8_9 6) (= cell_8_9 7) (= cell_8_9 8) (= cell_8_9 9))))
(assert
 (let (($x3742 (= cell_9_9 1)))
 (or $x3742 (= cell_9_9 2) (= cell_9_9 3) (= cell_9_9 4) (= cell_9_9 5) (= cell_9_9 6) (= cell_9_9 7) (= cell_9_9 8) (= cell_9_9 9))))
(assert
 (and (distinct cell_1_1 cell_1_2 cell_1_3 cell_1_4 cell_1_5 cell_1_6 cell_1_7 cell_1_8 cell_1_9) true))
(assert
 (and (distinct cell_2_1 cell_2_2 cell_2_3 cell_2_4 cell_2_5 cell_2_6 cell_2_7 cell_2_8 cell_2_9) true))
(assert
 (and (distinct cell_3_1 cell_3_2 cell_3_3 cell_3_4 cell_3_5 cell_3_6 cell_3_7 cell_3_8 cell_3_9) true))
(assert
 (and (distinct cell_4_1 cell_4_2 cell_4_3 cell_4_4 cell_4_5 cell_4_6 cell_4_7 cell_4_8 cell_4_9) true))
(assert
 (and (distinct cell_5_1 cell_5_2 cell_5_3 cell_5_4 cell_5_5 cell_5_6 cell_5_7 cell_5_8 cell_5_9) true))
(assert
 (and (distinct cell_6_1 cell_6_2 cell_6_3 cell_6_4 cell_6_5 cell_6_6 cell_6_7 cell_6_8 cell_6_9) true))
(assert
 (and (distinct cell_7_1 cell_7_2 cell_7_3 cell_7_4 cell_7_5 cell_7_6 cell_7_7 cell_7_8 cell_7_9) true))
(assert
 (and (distinct cell_8_1 cell_8_2 cell_8_3 cell_8_4 cell_8_5 cell_8_6 cell_8_7 cell_8_8 cell_8_9) true))
(assert
 (and (distinct cell_9_1 cell_9_2 cell_9_3 cell_9_4 cell_9_5 cell_9_6 cell_9_7 cell_9_8 cell_9_9) true))
(assert
 (and (distinct cell_1_1 cell_2_1 cell_3_1 cell_4_1 cell_5_1 cell_6_1 cell_7_1 cell_8_1 cell_9_1) true))
(assert
 (and (distinct cell_1_2 cell_2_2 cell_3_2 cell_4_2 cell_5_2 cell_6_2 cell_7_2 cell_8_2 cell_9_2) true))
(assert
 (and (distinct cell_1_3 cell_2_3 cell_3_3 cell_4_3 cell_5_3 cell_6_3 cell_7_3 cell_8_3 cell_9_3) true))
(assert
 (and (distinct cell_1_4 cell_2_4 cell_3_4 cell_4_4 cell_5_4 cell_6_4 cell_7_4 cell_8_4 cell_9_4) true))
(assert
 (and (distinct cell_1_5 cell_2_5 cell_3_5 cell_4_5 cell_5_5 cell_6_5 cell_7_5 cell_8_5 cell_9_5) true))
(assert
 (and (distinct cell_1_6 cell_2_6 cell_3_6 cell_4_6 cell_5_6 cell_6_6 cell_7_6 cell_8_6 cell_9_6) true))
(assert
 (and (distinct cell_1_7 cell_2_7 cell_3_7 cell_4_7 cell_5_7 cell_6_7 cell_7_7 cell_8_7 cell_9_7) true))
(assert
 (and (distinct cell_1_8 cell_2_8 cell_3_8 cell_4_8 cell_5_8 cell_6_8 cell_7_8 cell_8_8 cell_9_8) true))
(assert
 (and (distinct cell_1_9 cell_2_9 cell_3_9 cell_4_9 cell_5_9 cell_6_9 cell_7_9 cell_8_9 cell_9_9) true))
(assert
 (and (distinct cell_1_1 cell_1_2 cell_1_3 cell_2_1 cell_2_2 cell_2_3 cell_3_1 cell_3_2 cell_3_3) true))
(assert
 (and (distinct cell_1_4 cell_1_5 cell_1_6 cell_2_4 cell_2_5 cell_2_6 cell_3_4 cell_3_5 cell_3_6) true))
(assert
 (and (distinct cell_1_7 cell_1_8 cell_1_9 cell_2_7 cell_2_8 cell_2_9 cell_3_7 cell_3_8 cell_3_9) true))
(assert
 (and (distinct cell_4_1 cell_4_2 cell_4_3 cell_5_1 cell_5_2 cell_5_3 cell_6_1 cell_6_2 cell_6_3) true))
(assert
 (and (distinct cell_4_4 cell_4_5 cell_4_6 cell_5_4 cell_5_5 cell_5_6 cell_6_4 cell_6_5 cell_6_6) true))
(assert
 (and (distinct cell_4_7 cell_4_8 cell_4_9 cell_5_7 cell_5_8 cell_5_9 cell_6_7 cell_6_8 cell_6_9) true))
(assert
 (and (distinct cell_7_1 cell_7_2 cell_7_3 cell_8_1 cell_8_2 cell_8_3 cell_9_1 cell_9_2 cell_9_3) true))
(assert
 (and (distinct cell_7_4 cell_7_5 cell_7_6 cell_8_4 cell_8_5 cell_8_6 cell_9_4 cell_9_5 cell_9_6) true))
(assert
 (and (distinct cell_7_7 cell_7_8 cell_7_9 cell_8_7 cell_8_8 cell_8_9 cell_9_7 cell_9_8 cell_9_9) true))
(assert
 (let (($x210 (and (distinct cell_5_9 cell_6_8 cell_7_7 cell_8_6) true)))
 (let (($x9190 (and (distinct cell_2_9 cell_3_8 cell_4_7 cell_5_6 cell_6_5 cell_7_4 cell_8_3 cell_9_2) true)))
 (let (($x5896 (and (distinct cell_1_8 cell_2_7 cell_3_6 cell_4_5 cell_5_4 cell_6_3 cell_7_2 cell_8_1) true)))
 (let (($x5717 (and (distinct cell_1_5 cell_2_4 cell_3_3 cell_4_2) true)))
 (let (($x9452 (and (distinct cell_5_1 cell_6_2 cell_7_3 cell_8_4) true)))
 (let (($x7978 (and (distinct cell_2_1 cell_3_2 cell_4_3 cell_5_4 cell_6_5 cell_7_6 cell_8_7 cell_9_8) true)))
 (let (($x1271 (and (distinct cell_1_2 cell_2_3 cell_3_4 cell_4_5 cell_5_6 cell_6_7 cell_7_8 cell_8_9) true)))
 (let (($x8217 (and (distinct cell_1_5 cell_2_6 cell_3_7 cell_4_8) true)))
 (and $x8217 $x1271 $x7978 $x9452 $x5717 $x5896 $x9190 $x210))))))))))
(assert
 (and (distinct cell_5_7 2) true))
(check-sat)
